qe/outputs/qe/cbrdelay_l0_discretize/T=5,eliminate=[I_0,I_1,I_2,I_3,I_4,L_3,L_4,lhs=L_2],pl=0.smt2
; benchmark generated from python API
(set-info :status unknown)
(declare-fun S_4 () Real)
(declare-fun S_3 () Real)
(declare-fun C () Real)
(declare-fun L0 () Real)
(declare-fun B () Real)
(declare-fun S_0 () Real)
(declare-fun L_0 () Real)
(declare-fun A_3 () Real)
(declare-fun L_2 () Real)
(declare-fun L_1 () Real)
(declare-fun S_1 () Real)
(declare-fun S_2 () Real)
(declare-fun A_2 () Real)
(declare-fun A_4 () Real)
(declare-fun A_1 () Real)
(declare-fun A_0 () Real)
(assert
 (let (($x37 (>= L0 0.0)))
 (let (($x751 (>= C 5.0)))
 (let (($x581 (>= B 5.0)))
 (let (($x6461 (<= (+ (* 3.0 C) S_0 (* (- 1.0) S_4)) 0.0)))
 (let (($x5334 (not (= L_0 L_2))))
 (let (($x2998 (<= (+ (* (- 1.0) L_0) (* (- 1.0) B) A_3 (* (- 1.0) S_4)) 0.0)))
 (let (($x811 (not (<= L_1 L_0))))
 (let ((?x300 (* (- 1.0) L_2)))
 (let ((?x803 (+ A_3 ?x300)))
 (let (($x805 (>= S_4 ?x803)))
 (let (($x386 (or $x805 $x811 (<= (+ (* 2.0 C) S_1 (* (- 1.0) S_4)) 0.0))))
 (let (($x6535 (<= S_4 (+ A_4 (* (- 1.0) A_3) A_2 (* (- 1.0) L_1) C B))))
 (let (($x6498 (<= S_4 (+ A_4 (* (- 1.0) A_3) A_1 (* (- 1.0) L_1) (* 2.0 C)))))
 (let (($x64 (= L_2 L_1)))
 (let (($x6211 (<= A_2 (+ A_1 (* (- 1.0) B) C))))
 (let (($x6230 (not $x6211)))
 (let (($x6245 (or (>= S_4 (+ A_3 (* (- 1.0) L_1))) $x6230 (>= S_4 (+ A_2 (* (- 1.0) L_1) C)))))
 (let (($x54 (= L_1 L_0)))
 (let (($x6679 (or $x54 (<= S_4 (+ A_1 (* (- 1.0) L_1) (* (- 1.0) B) (* 3.0 C))))))
 (let (($x1358 (not (= L_1 L_2))))
 (let (($x6734 (or $x54 $x1358 (<= (+ A_2 (* (- 1.0) A_1) (* (- 1.0) C)) 0.0))))
 (let (($x6232 (or $x805 (>= S_4 (+ A_1 (* (- 1.0) L_1) (* (- 1.0) B) (* 2.0 C))) $x6211)))
 (let (($x6622 (or $x54 (<= S_3 (+ A_1 (* (- 1.0) L_1) (* (- 1.0) B) (* 2.0 C))))))
 (let ((?x475 (* (- 1.0) L_1)))
 (let ((?x867 (+ A_2 ?x475)))
 (let (($x2211 (>= S_3 ?x867)))
 (let (($x2456 (= L_2 L_0)))
 (let (($x1218 (not (= L_0 L_1))))
 (let (($x7630 (or $x1218 $x2456 (<= (+ A_1 (* (- 1.0) L_0) L_2 (* (- 1.0) A_2) C) 0.0))))
 (let (($x6717 (or (<= S_0 (+ (* (- 1.0) B) ?x300 A_2 (* (- 2.0) C))) $x1218 $x2456)))
 (let (($x36 (>= L_0 L0)))
 (let (($x111 (>= S_1 S_0)))
 (let (($x114 (>= S_2 S_1)))
 (let (($x117 (>= S_3 S_2)))
 (let (($x122 (>= A_1 A_0)))
 (let (($x123 (>= A_2 A_1)))
 (let (($x124 (>= A_3 A_2)))
 (let (($x125 (>= A_4 A_3)))
 (and (<= (+ A_1 ?x475) S_4) (not (<= (+ A_0 (* (- 1.0) L_0)) S_3)) $x125 $x124 $x123 $x122 $x117 $x114 $x111 $x36 (>= S_3 (+ A_2 ?x300 (* (- 1.0) B))) (or $x54 (<= S_1 (+ A_1 ?x475 (* (- 1.0) B)))) (or $x54 (<= S_0 (+ (* (- 1.0) B) ?x475 A_1 (* (- 1.0) C)))) (or $x1218 (>= S_2 (+ A_1 (* (- 1.0) L_0) (* (- 1.0) B)))) (>= S_2 (+ A_1 ?x475 (* (- 1.0) B))) (or $x64 (<= S_2 (+ A_2 ?x300 (* (- 1.0) B)))) (or $x64 (<= S_1 (+ (* (- 1.0) B) ?x300 A_2 (* (- 1.0) C)))) (>= S_0 (+ (* (- 1.0) B) ?x475 A_1 (* (- 2.0) C))) (<= S_3 ?x803) (or $x64 (not (<= L_2 L_1))) (>= S_2 (+ (* (- 1.0) B) ?x300 A_2 (* (- 1.0) C))) (>= S_1 (+ (* (- 1.0) B) ?x475 A_1 (* (- 1.0) C))) (or $x54 $x64 (= (+ A_2 ?x300) (+ A_1 ?x475 C))) (or $x805 (>= S_4 (+ A_2 ?x300 (* (- 1.0) B) C))) (or $x54 (<= S_2 (+ A_1 ?x475 (* (- 1.0) B) C))) (or $x6211 (>= S_3 (+ A_1 ?x475 (* (- 1.0) B) C))) (<= S_2 ?x867) (or $x2211 $x6230) (or $x64 (<= S_3 (+ A_2 ?x300 (* (- 1.0) B) C))) (or $x64 (<= S_4 (+ A_2 ?x300 (* (- 1.0) B) (* 2.0 C)))) (or $x54 $x811) (>= S_1 (+ (* (- 1.0) B) ?x300 A_2 (* (- 2.0) C))) (>= S_0 (+ (* (- 1.0) B) ?x300 A_2 (* (- 3.0) C))) $x6717 $x7630 (<= (+ (* (- 5.0) C) (* (- 1.0) S_0) S_4) 0.0) (<= (+ (* (- 3.0) C) S_4 (* (- 1.0) S_2)) 0.0) (<= (+ (* (- 4.0) C) (* (- 1.0) S_1) S_4) 0.0) (or $x2211 (<= (+ C S_1 (* (- 1.0) S_3)) 0.0)) (<= (+ (* (- 2.0) C) S_1 (* (- 1.0) S_0)) 0.0) (<= (+ (* (- 3.0) C) (* (- 1.0) S_0) S_2) 0.0) (<= (+ C S_0 (* (- 1.0) S_2)) 0.0) (or $x2211 (<= (+ (* 2.0 C) (* (- 1.0) S_3) S_0) 0.0)) (<= (+ (* (- 2.0) C) (* (- 1.0) S_1) S_2) 0.0) (<= S_4 (+ A_3 ?x300 C)) $x6622 $x6232 $x6734 $x6679 (<= S_3 (+ A_2 ?x475 C)) $x6245 (<= S_4 (+ A_2 ?x475 (* 2.0 C))) (or $x64 (<= S_4 (+ A_4 (* (- 1.0) A_3) A_2 ?x300 C))) $x6498 (<= S_4 (+ A_4 ?x300)) $x6535 (<= (+ (* (- 4.0) C) S_3 (* (- 1.0) S_0)) 0.0) (<= (+ (* (- 3.0) C) (* (- 1.0) S_1) S_3) 0.0) (or $x805 (<= (+ C (* (- 1.0) S_4) S_2) 0.0)) (<= (+ (* (- 2.0) C) S_3 (* (- 1.0) S_2)) 0.0) $x386 (or $x811 $x2998 $x6461) (or $x5334 (>= S_4 (+ A_3 (* (- 1.0) L_0))) $x6461) $x581 $x751 $x37 (<= (+ (* (- 2.0) C) (* (- 1.0) S_3) S_4) 0.0)))))))))))))))))))))))))))))))))))))))))
(check-sat)
